data/solutions/recovery/degenerate/moderate/flexible/degenerate_moderate_instance6/9.sol
Elapsed time: 0.05
Upper bound: 10516802.0
Planning weighted value: 63793041.0
C[0]=10516802.0
C[1]=10501936.0
C[2]=10500117.0
y[0]=2
y[1]=2
y[2]=1
y[3]=0
y[4]=0
y[5]=1
y[6]=2
y[7]=2
y[8]=1
y[9]=1
y[10]=0
y[11]=1
y[12]=1
y[13]=0
y[14]=2
y[15]=1
y[16]=2
y[17]=1
y[18]=0
y[19]=1
y[20]=0
y[21]=1
y[22]=2
y[23]=0
y[24]=0
y[25]=0
