data/solutions/recovery/degenerate/moderate/flexible/degenerate_moderate_instance6/9.log

Log started (V12.6.3.0) Sat Apr 21 11:06:21 2018

New value for default parallel thread count: 1

Problem '/tmp/tmpmIdxZa.pyomo.lp' read.
Read time = 0.00 sec. (0.02 ticks)

Problem name         : /tmp/tmpmIdxZa.pyomo.lp
Objective sense      : Minimize
Variables            :      83  [Nneg: 1,  Binary: 78,  General Integer: 4]
Objective nonzeros   :       1
Linear constraints   :      59  [Less: 29,  Equal: 30]
  Nonzeros           :    1466
  RHS nonzeros       :      53

Variables            : Min LB: 0.000000         Max UB: 1.000000       
Objective nonzeros   : Min   : 1.000000         Max   : 1.000000       
Linear constraints   :
  Nonzeros           : Min   : 1.000000         Max   : 2096995.       
  RHS nonzeros       : Min   : 1.000000         Max   : 3.000000       
Tried aggregator 2 times.
MIP Presolve eliminated 26 rows and 1 columns.
Aggregator did 3 substitutions.
Reduced MIP has 30 rows, 79 columns, and 209 nonzeros.
Reduced MIP has 78 binaries, 1 generals, 0 SOSs, and 0 indicators.
Presolve time = 0.00 sec. (0.56 ticks)
Found incumbent of value 1.1330681e+07 after 0.00 sec. (0.71 ticks)
Probing time = 0.00 sec. (0.04 ticks)
Cover probing fixed 0 vars, tightened 4 bounds.
Tried aggregator 1 time.
Reduced MIP has 30 rows, 79 columns, and 209 nonzeros.
Reduced MIP has 78 binaries, 1 generals, 0 SOSs, and 0 indicators.
Presolve time = 0.00 sec. (0.13 ticks)
Probing time = 0.00 sec. (0.03 ticks)
Clique table members: 26.
MIP emphasis: balance optimality and feasibility.
MIP search method: dynamic search.
Parallel mode: none, using 1 thread.
Root relaxation solution time = 0.00 sec. (0.07 ticks)

        Nodes                                         Cuts/
   Node  Left     Objective  IInf  Best Integer    Best Bound    ItCnt     Gap

*     0+    0                       1.13307e+07  2096995.0000            81.49%
      0     0   1.05063e+07     4   1.13307e+07   1.05063e+07        4    7.28%
      0     0   1.05063e+07     7   1.13307e+07      Fract: 2        9    7.28%
*     0+    0                       1.10807e+07   1.05063e+07             5.18%
*     0+    0                       1.10759e+07   1.05063e+07             5.14%
      0     2   1.05063e+07     7   1.10759e+07   1.05063e+07        9    5.14%
Elapsed time = 0.01 sec. (2.70 ticks, tree = 0.01 MB, solutions = 2)
*    10+   10                       1.07679e+07   1.05063e+07             2.43%
*    20+   20                       1.07007e+07   1.05063e+07             1.82%
*    30+   16                       1.05168e+07   1.05063e+07             0.10%

Cover cuts applied:  9
Gomory fractional cuts applied:  2

Root node processing (before b&c):
  Real time             =    0.01 sec. (2.70 ticks)
Sequential b&c:
  Real time             =    0.01 sec. (9.19 ticks)
                          ------------
Total (root+branch&cut) =    0.02 sec. (11.89 ticks)

Solution pool: 5 solutions saved.

MIP - Integer optimal solution:  Objective =  1.0516802000e+07
Solution time =    0.02 sec.  Iterations = 698  Nodes = 235
Deterministic time = 11.89 ticks  (641.11 ticks/sec)


Incumbent solution written to file '/tmp/tmpAQbs_w.cplex.sol'.
